NAME : local_10
TYPE : ATSP
DIMENSION : 5
EDGE_WEIGHT_TYPE : EXPLICIT
EDGE_WEIGHT_FORMAT : FULL_MATRIX
EDGE_WEIGHT_SECTION
0 846 10000000 643 0 
0 0 10000000 10000000 834 
0 10000000 0 901 10000000 
0 10000000 901 0 643 
0 10000000 10000000 10000000 0 
EOF